20 90
0 1 4.5
0 2 18.0
0 3 49.3
0 4 51.3
0 5 37.7
0 6 28.6
0 7 32.5
0 8 32.6
0 9 64.1
0 10 52.7
0 11 51.8
0 12 52.1
0 13 18.1
0 14 55.6
0 15 42.3
0 16 42.1
0 17 60.5
0 18 28.6
0 19 55.4
1 2 21.0
1 3 46.6
1 4 46.9
1 5 36.5
1 6 31.6
1 7 28.7
1 8 29.0
1 9 59.6
1 10 48.6
1 11 54.4
1 12 48.6
1 13 14.3
1 14 52.2
1 15 41.3
1 16 39.5
1 17 56.2
1 18 24.6
1 19 52.6
2 3 67.3
2 4 65.9
2 5 55.0
2 6 10.6
2 7 49.7
2 8 37.6
2 9 74.6
2 10 59.6
2 11 59.9
2 12 69.7
2 13 27.4
2 14 73.2
2 15 59.4
2 16 60.1
2 17 75.8
2 18 36.4
2 19 73.3
3 4 33.8
3 5 19.6
3 6 77.9
3 7 21.6
3 8 57.2
3 9 56.7
3 10 61.5
3 11 60.7
3 12 11.0
3 13 49.2
3 14 12.1
3 15 19.9
3 16 7.1
3 17 33.6
3 18 51.2
3 19 6.1
4 5 46.2
4 6 75.4
4 7 23.4
4 8 37.6
4 9 22.9
4 10 31.3
4 11 86.0
4 12 24.3
4 13 39.2
4 14 26.1
4 15 49.3
4 16 32.7
4 17 10.6
4 18 33.8
4 19 35.8
5 6 65.3
5 7 24.8
5 8 56.7
5 9 68.1
5 10 67.5
5 11 41.6
5 12 29.1
5 13 44.6
5 14 31.3
5 15 4.9
5 16 15.2
5 17 49.6
5 18 50.5
5 19 24.5
6 7 60.1
6 8 44.3
6 9 82.4
6 10 66.0
6 11 66.2
6 12 80.2
6 13 36.3
6 14 83.8
6 15 69.6
6 16 70.7
6 17 85.5
6 18 44.3
6 19 83.9
7 8 35.8
7 9 43.8
7 10 43.0
7 11 62.7
7 12 20.3
7 13 28.1
7 14 23.9
7 15 28.9
7 16 15.9
7 17 30.1
7 18 29.7
7 19 26.9
8 9 38.5
8 10 22.0
8 11 83.1
8 12 53.4
8 13 14.8
8 14 56.7
8 15 61.5
8 16 51.6
8 17 48.2
8 18 6.2
8 19 62.2
9 10 19.6
9 11 106.0
9 12 47.0
9 13 47.6
9 14 48.3
9 15 71.6
9 16 55.3
9 17 26.7
9 18 38.2
9 19 58.5
10 11 100.4
10 12 54.1
10 13 34.7
10 14 56.5
10 15 71.8
10 16 57.9
10 17 39.8
10 18 24.2
10 19 65.0
11 12 70.7
11 13 68.4
11 14 72.7
11 15 40.9
11 16 56.8
11 17 90.7
11 18 78.0
11 19 64.6
12 13 48.0
12 14 3.6
12 15 30.3
12 16 14.1
12 17 22.8
12 18 47.8
12 19 11.5
13 14 51.6
13 15 49.5
13 16 42.7
13 17 49.5
13 18 10.5
13 19 54.8
14 15 32.0
14 16 16.6
14 17 23.1
14 18 51.1
14 19 10.8
15 16 17.1
15 17 51.8
15 18 55.3
15 19 23.8
16 17 34.7
16 18 45.5
16 19 13.2
17 18 44.4
17 19 33.8
18 19 56.3
